log/Reading instance from file data/g02.dat
Number of nodes: 21
Number of edges: 65
initialize CPLEX ... done.
Calling CPLEX solve ...
Version identifier: 12.10.0.0 | 2019-11-26 | 843d4de
CPXPARAM_Threads                                 1
CPXPARAM_TimeLimit                               3600
CPXPARAM_WorkMem                                 8192
Tried aggregator 2 times.
MIP Presolve eliminated 25 rows and 28 columns.
MIP Presolve modified 132 coefficients.
Aggregator did 16 substitutions.
Reduced MIP has 153 rows, 236 columns, and 778 nonzeros.
Reduced MIP has 126 binaries, 110 generals, 0 SOSs, and 0 indicators.
Presolve time = 0.00 sec. (1.18 ticks)
Found incumbent of value 1293.000000 after 0.00 sec. (1.97 ticks)
Probing fixed 0 vars, tightened 24 bounds.
Probing time = 0.00 sec. (0.39 ticks)
Tried aggregator 1 time.
Detecting symmetries...
Reduced MIP has 153 rows, 236 columns, and 778 nonzeros.
Reduced MIP has 126 binaries, 110 generals, 0 SOSs, and 0 indicators.
Presolve time = 0.00 sec. (0.55 ticks)
Probing time = 0.00 sec. (0.32 ticks)
Cover probing fixed 0 vars, tightened 20 bounds.
Clique table members: 111.
MIP emphasis: balance optimality and feasibility.
MIP search method: dynamic search.
Parallel mode: none, using 1 thread.
Root relaxation solution time = 0.00 sec. (0.28 ticks)

        Nodes                                         Cuts/
   Node  Left     Objective  IInf  Best Integer    Best Bound    ItCnt     Gap

*     0+    0                         1293.0000        0.0000           100.00%
      0     0      247.2500     8     1293.0000      247.2500       19   80.88%
      0     0      270.0000     8     1293.0000      Cuts: 20       93   79.12%
      0     0      316.6931     8     1293.0000       Cuts: 7      169   75.51%
*     0+    0                          373.0000      316.6931            15.10%
Detecting symmetries...

Repeating presolve.
Tried aggregator 2 times.
MIP Presolve eliminated 105 rows and 184 columns.
MIP Presolve added 2 rows and 0 columns.
MIP Presolve modified 15 coefficients.
Aggregator did 5 substitutions.
Reduced MIP has 45 rows, 47 columns, and 166 nonzeros.
Reduced MIP has 31 binaries, 16 generals, 0 SOSs, and 0 indicators.
Presolve time = 0.00 sec. (0.40 ticks)
Probing fixed 7 vars, tightened 12 bounds.
Probing changed sense of 2 constraints.
Probing time = 0.00 sec. (0.09 ticks)
Cover probing fixed 0 vars, tightened 7 bounds.
Tried aggregator 3 times.
MIP Presolve eliminated 18 rows and 19 columns.
MIP Presolve modified 12 coefficients.
Aggregator did 6 substitutions.
Reduced MIP has 21 rows, 22 columns, and 80 nonzeros.
Reduced MIP has 14 binaries, 8 generals, 0 SOSs, and 0 indicators.
Presolve time = 0.00 sec. (0.23 ticks)
Probing fixed 5 vars, tightened 3 bounds.
Probing time = 0.00 sec. (0.03 ticks)
Tried aggregator 2 times.
MIP Presolve eliminated 7 rows and 7 columns.
MIP Presolve modified 2 coefficients.
Aggregator did 1 substitutions.
Reduced MIP has 13 rows, 14 columns, and 44 nonzeros.
Reduced MIP has 8 binaries, 6 generals, 0 SOSs, and 0 indicators.
Presolve time = 0.00 sec. (0.06 ticks)
Probing fixed 2 vars, tightened 2 bounds.
Probing time = 0.00 sec. (0.02 ticks)
Tried aggregator 3 times.
MIP Presolve eliminated 11 rows and 12 columns.
MIP Presolve modified 2 coefficients.
Aggregator did 2 substitutions.
All rows and columns eliminated.
Presolve time = 0.00 sec. (0.03 ticks)
Represolve time = 0.00 sec. (1.11 ticks)

Root node processing (before b&c):
  Real time             =    0.02 sec. (11.17 ticks)
Sequential b&c:
  Real time             =    0.00 sec. (0.00 ticks)
                          ------------
Total (root+branch&cut) =    0.02 sec. (11.17 ticks)
SOLUTION:

x(0,7)[0..1]  = 1
x(7,11)[0..1]  = 1
x(7,13)[0..1]  = 1
x(13,18)[0..1]  = 1
z(7)[0..1]  = 1
z(11)[0..1]  = 1
z(13)[0..1]  = 1
z(18)[0..1]  = 1


CPLEX finished.

CPLEX status: Optimal
Branch-and-Bound nodes: 0
Objective value: 373
CPU time: 0.02

